% Logging successfully configured
%%%mzn-stat: initTime=0.025698491
%%%mzn-stat: objective=1152
%%%mzn-stat: nodes=1120
%%%mzn-stat: restarts=0
%%%mzn-stat: peakDepth=1105
%%%mzn-stat: solveTime=0.012373961
%%%mzn-stat: variables=2341
%%%mzn-stat: propagators=6533
%%%mzn-stat: failures=13
%%%mzn-stat: propagations=43395
%%%mzn-stat: nogoods=13
%%%mzn-stat: numAtomicConstraintsPropagated=0
%%%mzn-stat: circuitNumber4951PropagationsThatFoundConflict=6
%%%mzn-stat: circuitNumber4951TotalFixedEdgesAtConflict=594
%%%mzn-stat: circuitNumber4951NumberOfConflicts=6
%%%mzn-stat: circuitNumber4951PropagationsThatPruned=5
%%%mzn-stat: circuitNumber4951PropagationsTotal=89
%%%mzn-stat: AverageConflictSize=38.61538461538461
%%%mzn-stat: NumUnitNogoodsLearned=0
%%%mzn-stat: AverageLearnedNogoodLength=62.30769230769231
%%%mzn-stat: AverageBacktrackAmount=0
%%%mzn-stat: AverageLbd=48.69230769230769
%%%mzn-stat: 2AutonomousSearchNumBackupCalled=1037
%%%mzn-stat: 2AutonomousSearchNumPredicatesRemoved=0
%%%mzn-stat: 2AutonomousSearchNumCalls=1038
%%%mzn-stat: 2AutonomousSearchNumPredicatesAdded=920
%%%mzn-stat: 2AutonomousSearchAverageSizeOfHeap=0.8863198458574181
%%%mzn-stat: 2AutonomousSearchNumAssignedPredicatesEncountered=920
%%%mzn-stat-end
maxleg = 1152;
succ = array1d(1..100,[8, 15, 23, 3, 9, 18, 25, 12, 19, 7, 14, 10, 16, 4, 27, 24, 11, 34, 1, 30, 31, 62, 43, 59, 6, 20, 22, 13, 2, 21, 45, 46, 56, 29, 32, 39, 36, 33, 41, 71, 35, 49, 37, 5, 44, 63, 72, 38, 28, 66, 47, 40, 51, 57, 78, 50, 67, 17, 65, 61, 64, 42, 26, 48, 81, 68, 85, 87, 84, 76, 54, 60, 91, 70, 77, 79, 83, 88, 80, 75, 98, 95, 90, 93, 82, 52, 94, 86, 92, 100, 53, 73, 99, 96, 58, 74, 55, 69, 89, 97]);
% time elapsed: 2.56 s
----------
%%%mzn-stat: initTime=0.025698491
%%%mzn-stat: objective=1137
%%%mzn-stat: nodes=3094
%%%mzn-stat: restarts=0
%%%mzn-stat: peakDepth=1105
%%%mzn-stat: solveTime=0.155388393
%%%mzn-stat: variables=2341
%%%mzn-stat: propagators=6533
%%%mzn-stat: failures=540
%%%mzn-stat: propagations=656793
%%%mzn-stat: nogoods=540
%%%mzn-stat: numAtomicConstraintsPropagated=0
%%%mzn-stat: circuitNumber4951PropagationsThatFoundConflict=23
%%%mzn-stat: circuitNumber4951TotalFixedEdgesAtConflict=2191
%%%mzn-stat: circuitNumber4951NumberOfConflicts=23
%%%mzn-stat: circuitNumber4951PropagationsThatPruned=91
%%%mzn-stat: circuitNumber4951PropagationsTotal=985
%%%mzn-stat: AverageConflictSize=7.368518518518519
%%%mzn-stat: NumUnitNogoodsLearned=0
%%%mzn-stat: AverageLearnedNogoodLength=29.61111111111111
%%%mzn-stat: AverageBacktrackAmount=0
%%%mzn-stat: AverageLbd=19.346296296296295
%%%mzn-stat: 2AutonomousSearchNumBackupCalled=2069
%%%mzn-stat: 2AutonomousSearchNumPredicatesRemoved=0
%%%mzn-stat: 2AutonomousSearchNumCalls=2071
%%%mzn-stat: 2AutonomousSearchNumPredicatesAdded=3207
%%%mzn-stat: 2AutonomousSearchAverageSizeOfHeap=1.5543215837759536
%%%mzn-stat: 2AutonomousSearchNumAssignedPredicatesEncountered=3219
%%%mzn-stat-end
maxleg = 1137;
succ = array1d(1..100,[8, 15, 23, 3, 9, 18, 25, 12, 19, 7, 14, 10, 16, 4, 27, 24, 11, 34, 1, 30, 31, 62, 43, 59, 6, 20, 22, 13, 2, 21, 45, 46, 56, 29, 32, 39, 36, 33, 41, 71, 35, 49, 37, 5, 44, 63, 72, 38, 28, 66, 47, 40, 51, 57, 78, 50, 67, 17, 65, 61, 64, 52, 26, 48, 81, 68, 73, 96, 82, 76, 54, 60, 91, 70, 77, 79, 100, 88, 80, 75, 98, 95, 90, 93, 83, 87, 94, 86, 42, 97, 53, 85, 99, 84, 58, 74, 55, 69, 89, 92]);
% time elapsed: 2.69 s
----------
